2047
6079
7135
7615
7935
8189
9727
11199
12255
12735
13055
13791
14319
14845
15355
15615
16255
16287
16317
16375
17407
19967
20415
20447
21951
22271
22495
22525
22975
23295
23807
24031
24061
24447
24479
24509
24559
24567
24571
26559
26591
27615
28095
28127
28415
28543
28575
28655
28663
28667
28669
29151
29679
29951
30205
30591
30623
30653
30711
30715
31677
31735
32127
32159
32189
32239
32247
32251
32383
32447
32479
32495
32503
32507
32509
32575
32607
32623
32631
32635
32637
32687
32695
32699
32719
32727
32731
32733
32743
32747
32749
32755
32757
32761
32766
